\ Model ClassFormation_PWL
\ LP format - for model browsing. Use MPS format to capture full model detail.
Minimize
  1000 E[0] + 1000 E[1] + 1000 E[2] + 1000 E[3] + 4 zc[0] + 4 zc[1]
   + 4 zc[2] + 4 zc[3]
Subject To
 DefE_0: - 10 y[0,0] - 12 y[1,0] - 14 y[2,0] - 16 y[3,0] - 18 y[4,0]
   - 20 y[5,0] - 22 y[6,0] - 24 y[7,0] - 26 y[8,0] - 28 y[9,0] - 30 y[10,0]
   - 32 y[11,0] - 34 y[12,0] - 36 y[13,0] - 38 y[14,0] + E[0] = 0
 DefT_0: - 50 y[0,0] - 72 y[1,0] - 98 y[2,0] - 128 y[3,0] - 162 y[4,0]
   - 200 y[5,0] - 242 y[6,0] - 288 y[7,0] - 338 y[8,0] - 392 y[9,0]
   - 450 y[10,0] - 512 y[11,0] - 578 y[12,0] - 648 y[13,0] - 722 y[14,0]
   + T[0] = 0
 DefN_0: - 100 x[0,0] - 105 x[1,0] - 110 x[2,0] - 115 x[3,0] - 120 x[4,0]
   - 125 x[5,0] - 130 x[6,0] - 135 x[7,0] - 140 x[8,0] - 145 x[9,0]
   - 150 x[10,0] - 155 x[11,0] - 160 x[12,0] - 165 x[13,0] - 170 x[14,0]
   - 175 x[15,0] - 180 x[16,0] - 185 x[17,0] - 190 x[18,0] - 195 x[19,0]
   + N[0] = 0
 DefE_1: - 10 y[0,1] - 12 y[1,1] - 14 y[2,1] - 16 y[3,1] - 18 y[4,1]
   - 20 y[5,1] - 22 y[6,1] - 24 y[7,1] - 26 y[8,1] - 28 y[9,1] - 30 y[10,1]
   - 32 y[11,1] - 34 y[12,1] - 36 y[13,1] - 38 y[14,1] + E[1] = 0
 DefT_1: - 50 y[0,1] - 72 y[1,1] - 98 y[2,1] - 128 y[3,1] - 162 y[4,1]
   - 200 y[5,1] - 242 y[6,1] - 288 y[7,1] - 338 y[8,1] - 392 y[9,1]
   - 450 y[10,1] - 512 y[11,1] - 578 y[12,1] - 648 y[13,1] - 722 y[14,1]
   + T[1] = 0
 DefN_1: - 100 x[0,1] - 105 x[1,1] - 110 x[2,1] - 115 x[3,1] - 120 x[4,1]
   - 125 x[5,1] - 130 x[6,1] - 135 x[7,1] - 140 x[8,1] - 145 x[9,1]
   - 150 x[10,1] - 155 x[11,1] - 160 x[12,1] - 165 x[13,1] - 170 x[14,1]
   - 175 x[15,1] - 180 x[16,1] - 185 x[17,1] - 190 x[18,1] - 195 x[19,1]
   + N[1] = 0
 DefE_2: - 10 y[0,2] - 12 y[1,2] - 14 y[2,2] - 16 y[3,2] - 18 y[4,2]
   - 20 y[5,2] - 22 y[6,2] - 24 y[7,2] - 26 y[8,2] - 28 y[9,2] - 30 y[10,2]
   - 32 y[11,2] - 34 y[12,2] - 36 y[13,2] - 38 y[14,2] + E[2] = 0
 DefT_2: - 50 y[0,2] - 72 y[1,2] - 98 y[2,2] - 128 y[3,2] - 162 y[4,2]
   - 200 y[5,2] - 242 y[6,2] - 288 y[7,2] - 338 y[8,2] - 392 y[9,2]
   - 450 y[10,2] - 512 y[11,2] - 578 y[12,2] - 648 y[13,2] - 722 y[14,2]
   + T[2] = 0
 DefN_2: - 100 x[0,2] - 105 x[1,2] - 110 x[2,2] - 115 x[3,2] - 120 x[4,2]
   - 125 x[5,2] - 130 x[6,2] - 135 x[7,2] - 140 x[8,2] - 145 x[9,2]
   - 150 x[10,2] - 155 x[11,2] - 160 x[12,2] - 165 x[13,2] - 170 x[14,2]
   - 175 x[15,2] - 180 x[16,2] - 185 x[17,2] - 190 x[18,2] - 195 x[19,2]
   + N[2] = 0
 DefE_3: - 10 y[0,3] - 12 y[1,3] - 14 y[2,3] - 16 y[3,3] - 18 y[4,3]
   - 20 y[5,3] - 22 y[6,3] - 24 y[7,3] - 26 y[8,3] - 28 y[9,3] - 30 y[10,3]
   - 32 y[11,3] - 34 y[12,3] - 36 y[13,3] - 38 y[14,3] + E[3] = 0
 DefT_3: - 50 y[0,3] - 72 y[1,3] - 98 y[2,3] - 128 y[3,3] - 162 y[4,3]
   - 200 y[5,3] - 242 y[6,3] - 288 y[7,3] - 338 y[8,3] - 392 y[9,3]
   - 450 y[10,3] - 512 y[11,3] - 578 y[12,3] - 648 y[13,3] - 722 y[14,3]
   + T[3] = 0
 DefN_3: - 100 x[0,3] - 105 x[1,3] - 110 x[2,3] - 115 x[3,3] - 120 x[4,3]
   - 125 x[5,3] - 130 x[6,3] - 135 x[7,3] - 140 x[8,3] - 145 x[9,3]
   - 150 x[10,3] - 155 x[11,3] - 160 x[12,3] - 165 x[13,3] - 170 x[14,3]
   - 175 x[15,3] - 180 x[16,3] - 185 x[17,3] - 190 x[18,3] - 195 x[19,3]
   + N[3] = 0
 Assign_0: x[0,0] + x[0,1] + x[0,2] + x[0,3] = 1
 Assign_1: x[1,0] + x[1,1] + x[1,2] + x[1,3] = 1
 Assign_2: x[2,0] + x[2,1] + x[2,2] + x[2,3] = 1
 Assign_3: x[3,0] + x[3,1] + x[3,2] + x[3,3] = 1
 Assign_4: x[4,0] + x[4,1] + x[4,2] + x[4,3] = 1
 Assign_5: x[5,0] + x[5,1] + x[5,2] + x[5,3] = 1
 Assign_6: x[6,0] + x[6,1] + x[6,2] + x[6,3] = 1
 Assign_7: x[7,0] + x[7,1] + x[7,2] + x[7,3] = 1
 Assign_8: x[8,0] + x[8,1] + x[8,2] + x[8,3] = 1
 Assign_9: x[9,0] + x[9,1] + x[9,2] + x[9,3] = 1
 Assign_10: x[10,0] + x[10,1] + x[10,2] + x[10,3] = 1
 Assign_11: x[11,0] + x[11,1] + x[11,2] + x[11,3] = 1
 Assign_12: x[12,0] + x[12,1] + x[12,2] + x[12,3] = 1
 Assign_13: x[13,0] + x[13,1] + x[13,2] + x[13,3] = 1
 Assign_14: x[14,0] + x[14,1] + x[14,2] + x[14,3] = 1
 Assign_15: x[15,0] + x[15,1] + x[15,2] + x[15,3] = 1
 Assign_16: x[16,0] + x[16,1] + x[16,2] + x[16,3] = 1
 Assign_17: x[17,0] + x[17,1] + x[17,2] + x[17,3] = 1
 Assign_18: x[18,0] + x[18,1] + x[18,2] + x[18,3] = 1
 Assign_19: x[19,0] + x[19,1] + x[19,2] + x[19,3] = 1
 OneClassPerLoc_0: y[0,0] + y[0,1] + y[0,2] + y[0,3] <= 1
 OneClassPerLoc_1: y[1,0] + y[1,1] + y[1,2] + y[1,3] <= 1
 OneClassPerLoc_2: y[2,0] + y[2,1] + y[2,2] + y[2,3] <= 1
 OneClassPerLoc_3: y[3,0] + y[3,1] + y[3,2] + y[3,3] <= 1
 OneClassPerLoc_4: y[4,0] + y[4,1] + y[4,2] + y[4,3] <= 1
 OneClassPerLoc_5: y[5,0] + y[5,1] + y[5,2] + y[5,3] <= 1
 OneClassPerLoc_6: y[6,0] + y[6,1] + y[6,2] + y[6,3] <= 1
 OneClassPerLoc_7: y[7,0] + y[7,1] + y[7,2] + y[7,3] <= 1
 OneClassPerLoc_8: y[8,0] + y[8,1] + y[8,2] + y[8,3] <= 1
 OneClassPerLoc_9: y[9,0] + y[9,1] + y[9,2] + y[9,3] <= 1
 OneClassPerLoc_10: y[10,0] + y[10,1] + y[10,2] + y[10,3] <= 1
 OneClassPerLoc_11: y[11,0] + y[11,1] + y[11,2] + y[11,3] <= 1
 OneClassPerLoc_12: y[12,0] + y[12,1] + y[12,2] + y[12,3] <= 1
 OneClassPerLoc_13: y[13,0] + y[13,1] + y[13,2] + y[13,3] <= 1
 OneClassPerLoc_14: y[14,0] + y[14,1] + y[14,2] + y[14,3] <= 1
 Mc1_T_0: - 0.1 E[0] + T[0] - 1e-06 r[0] >= -1e-07
 Mc2_T_0: - 19 E[0] + T[0] - 360 r[0] >= -6840
 Mc3_T_0: - 19 E[0] + T[0] - 1e-06 r[0] <= -1.9e-05
 Mc4_T_0: - 0.1 E[0] + T[0] - 360 r[0] <= -36
 Mc1_z_0: - 0.1 N[0] + zc[0] >= 0
 Mc2_z_0: - 19 N[0] - 2950 r[0] + zc[0] >= -56050
 Mc3_z_0: - 19 N[0] + zc[0] <= 0
 Mc4_z_0: - 0.1 N[0] - 2950 r[0] + zc[0] <= -295
 Mc1_T_1: - 0.1 E[1] + T[1] - 1e-06 r[1] >= -1e-07
 Mc2_T_1: - 19 E[1] + T[1] - 360 r[1] >= -6840
 Mc3_T_1: - 19 E[1] + T[1] - 1e-06 r[1] <= -1.9e-05
 Mc4_T_1: - 0.1 E[1] + T[1] - 360 r[1] <= -36
 Mc1_z_1: - 0.1 N[1] + zc[1] >= 0
 Mc2_z_1: - 19 N[1] - 2950 r[1] + zc[1] >= -56050
 Mc3_z_1: - 19 N[1] + zc[1] <= 0
 Mc4_z_1: - 0.1 N[1] - 2950 r[1] + zc[1] <= -295
 Mc1_T_2: - 0.1 E[2] + T[2] - 1e-06 r[2] >= -1e-07
 Mc2_T_2: - 19 E[2] + T[2] - 360 r[2] >= -6840
 Mc3_T_2: - 19 E[2] + T[2] - 1e-06 r[2] <= -1.9e-05
 Mc4_T_2: - 0.1 E[2] + T[2] - 360 r[2] <= -36
 Mc1_z_2: - 0.1 N[2] + zc[2] >= 0
 Mc2_z_2: - 19 N[2] - 2950 r[2] + zc[2] >= -56050
 Mc3_z_2: - 19 N[2] + zc[2] <= 0
 Mc4_z_2: - 0.1 N[2] - 2950 r[2] + zc[2] <= -295
 Mc1_T_3: - 0.1 E[3] + T[3] - 1e-06 r[3] >= -1e-07
 Mc2_T_3: - 19 E[3] + T[3] - 360 r[3] >= -6840
 Mc3_T_3: - 19 E[3] + T[3] - 1e-06 r[3] <= -1.9e-05
 Mc4_T_3: - 0.1 E[3] + T[3] - 360 r[3] <= -36
 Mc1_z_3: - 0.1 N[3] + zc[3] >= 0
 Mc2_z_3: - 19 N[3] - 2950 r[3] + zc[3] >= -56050
 Mc3_z_3: - 19 N[3] + zc[3] <= 0
 Mc4_z_3: - 0.1 N[3] - 2950 r[3] + zc[3] <= -295
Bounds
 1e-06 <= E[0] <= 360
 1e-06 <= E[1] <= 360
 1e-06 <= E[2] <= 360
 1e-06 <= E[3] <= 360
 T[0] <= 6840
 T[1] <= 6840
 T[2] <= 6840
 T[3] <= 6840
 N[0] <= 2950
 N[1] <= 2950
 N[2] <= 2950
 N[3] <= 2950
 0.1 <= r[0] <= 19
 0.1 <= r[1] <= 19
 0.1 <= r[2] <= 19
 0.1 <= r[3] <= 19
 zc[0] <= 56050
 zc[1] <= 56050
 zc[2] <= 56050
 zc[3] <= 56050
Binaries
 x[0,0] x[0,1] x[0,2] x[0,3] x[1,0] x[1,1] x[1,2] x[1,3] x[2,0] x[2,1]
 x[2,2] x[2,3] x[3,0] x[3,1] x[3,2] x[3,3] x[4,0] x[4,1] x[4,2] x[4,3]
 x[5,0] x[5,1] x[5,2] x[5,3] x[6,0] x[6,1] x[6,2] x[6,3] x[7,0] x[7,1]
 x[7,2] x[7,3] x[8,0] x[8,1] x[8,2] x[8,3] x[9,0] x[9,1] x[9,2] x[9,3]
 x[10,0] x[10,1] x[10,2] x[10,3] x[11,0] x[11,1] x[11,2] x[11,3] x[12,0]
 x[12,1] x[12,2] x[12,3] x[13,0] x[13,1] x[13,2] x[13,3] x[14,0] x[14,1]
 x[14,2] x[14,3] x[15,0] x[15,1] x[15,2] x[15,3] x[16,0] x[16,1] x[16,2]
 x[16,3] x[17,0] x[17,1] x[17,2] x[17,3] x[18,0] x[18,1] x[18,2] x[18,3]
 x[19,0] x[19,1] x[19,2] x[19,3] y[0,0] y[0,1] y[0,2] y[0,3] y[1,0] y[1,1]
 y[1,2] y[1,3] y[2,0] y[2,1] y[2,2] y[2,3] y[3,0] y[3,1] y[3,2] y[3,3]
 y[4,0] y[4,1] y[4,2] y[4,3] y[5,0] y[5,1] y[5,2] y[5,3] y[6,0] y[6,1]
 y[6,2] y[6,3] y[7,0] y[7,1] y[7,2] y[7,3] y[8,0] y[8,1] y[8,2] y[8,3]
 y[9,0] y[9,1] y[9,2] y[9,3] y[10,0] y[10,1] y[10,2] y[10,3] y[11,0]
 y[11,1] y[11,2] y[11,3] y[12,0] y[12,1] y[12,2] y[12,3] y[13,0] y[13,1]
 y[13,2] y[13,3] y[14,0] y[14,1] y[14,2] y[14,3]
End
